(declare-fun bvlambda_35_ () (_ BitVec 1))
(declare-fun bvlambda_36_ () (_ BitVec 2))
(declare-fun bvlambda_40_ () (_ BitVec 1))
(declare-fun bvlambda_52_ () (_ BitVec 1))
(declare-fun bvlambda_65_ () (_ BitVec 1))
(declare-fun bvlambda_66_ () (_ BitVec 5))
(declare-fun a112 () (Array (_ BitVec 1) (_ BitVec 9)))
(assert
(let (($e1 (_ bv0 1)))
(let (($e12 (_ bv42 16)))
(let (($e17 (_ bv0 2)))
(let (($e22 (_ bv0 8)))
(let (($e117                        #b1     ))
(let (($e121                           #b1     ))
(let (($e122                            $e121 ))
(let (($e123        $e122       ))
(let (($e124 (concat $e22 $e123)))
(let (($e125 (store a112 bvlambda_52_ $e124)))
(let (($e126 (select $e125 $e117)))
(let (($e337         $e12       ))
(let (($e339                                 $e337 ))
(let (($e765 (concat bvlambda_35_ bvlambda_36_)))
(let (($e766 (concat $e765 bvlambda_65_)))
(let (($e767 (concat $e766 bvlambda_66_)))
(let (($e776              $e126 ))
(let (($e778                             $e776  ))
(let (($e779      (bvult $e778 $e767)         ))
(let (($e786                      (bvnot $e779) ))
(let (($e810                      $e786 ))
(let (($e823                      $e810 ))
(let (($e824 (       bvnot $e823               )))
(let (($e838                      (bvnot $e824) ))
(let (($e839 ((_ extract 13 5) $e339)))
(let (($e840 (store a112 $e1 $e839)))
(let (($e841 (select $e840 bvlambda_40_)))
(let (($e843 (concat (bvnot $e17) $e841)))
(let (($e845                    $e843       ))
(let (($e854 ((_ extract 10 3) $e845)))
(let (($e855      (= $e22 $e854)         ))
(let (($e856        $e855       ))
(let (($e876               $e856          ))
(let (($e877      (= $e876 $e838)         ))
                    (bvnot $e877)
                                                                                                                                                                                                                                                                                                                                                                    ))                   )))        ) ) ))))             ))            )                       )      )) )        )))                                                                                                                                                                                                                                                                                                                                                                                                                                         ) )                                                                                                                                                                                                                  ))))))   )                       )    )    )          ))
